letting initialStacks = [1, 38, 41, 23, 36, 19, 10, 40, 33, 24, 8, 3, 12, 20, 35, 48, 27, 37, 34, 51, 15, 16, 14, 43, 47, 11, 22, 7, 13, 39, 45, 32, 30, 18, 50, 29, 28, 42, 26, 9, 4, 25, 21, 2, 49, 5, 44, 6, 31, 46, 17]
